\ Model qp
\ LP format - for model browsing. Use MPS format to capture full model detail.
Minimize
  - 20.5289882197645 tau1 + 4.973857122533346 tau2 + 0 a01 + 0 a02 + 0 a03
   + 0 a10 + 0 a11 + 0 a12 + 0 a13 + 0 a20 + 0 a21 + 0 a22 + 0 a30 + 0 a31
   + 0 a32 + 117.7294666694953 Constant + [ 2 tau1 ^2 + 2 tau2 ^2
   + 2 tau3 ^2 + 2000 a00 ^2 ] / 2 
Subject To
 R11085: - tau1 >= -0.0734048032921967
 R11086: tau1 >= -0.0734048032921967
 R11087: - tau2 >= -0.0734048032921967
 R11088: tau2 >= -0.0734048032921967
 R11089: - 136.8662779596694 tau1 - 232.1186762979338 tau2
   - 0.1441729588933068 a40 - 13.35917836368665 a41 >= 17.4360825001187
Bounds
 -1.184067 <= tau1 <= 1.184067
 -1.184067 <= tau2 <= 1.184067
 -13.9302 <= tau3 <= 13.9302
 a00 <= 1e+06
 1 <= a01 <= 10000
 1 <= a02 <= 100
 a03 = 1
 a10 <= 1e+06
 1 <= a11 <= 10000
 1 <= a12 <= 100
 a13 = 1
 a20 <= 1
 a21 = 1
 a22 = 1
 a30 <= 1
 a31 = 1
 a32 = 1
 a40 <= 1e+06
 1 <= a41 <= 10000
 Constant = 1
End
